44

C          2.32931       -0.98191        1.35934
C          2.87716        0.99354        0.24800
C          3.62158       -1.12780        1.84272
C          4.19367        0.93241        0.68391
C          4.55693       -0.15044        1.48931
H          3.88709       -1.96587        2.47736
H          4.90661        1.70273        0.41246
H          5.57606       -0.22919        1.85255
C          1.12876       -1.81016        1.57702
N          0.02396       -1.45162        1.00009
C         -0.25247       -3.39033        2.31162
C         -1.03802       -2.35635        1.46989
H         -0.18615       -4.37536        1.85019
N          1.99682        0.05377        0.58945
H         -0.58671       -3.47617        3.34400
C          2.18660        2.00689       -0.56998
N          0.93102        1.82480       -0.83169
C          1.74062        3.84546       -1.73837
C          0.45296        2.99875       -1.57522
H          1.68897        4.83063       -1.27759
O          2.76270        3.08841       -1.00209
O          1.11625       -2.85242        2.35151
H          2.09028        3.92542       -2.76704
C          0.20782       -1.60053       -2.36157
C         -1.83097        1.02142        0.48858
O         -0.78030        1.17371        1.19067
O         -1.64672        0.36699       -0.59337
C         -3.16327        1.54110        0.91116
H         -3.04739        2.40050        1.56958
H         -3.77729        1.78268        0.04432
O          0.86425       -0.82514       -1.62818
Fe         0.20046        0.16364       -0.09359
H         -0.31674        3.51425       -0.99541
H          0.02874        2.68822       -2.53202
H         -1.76058       -1.78891        2.06149
H         -1.54875       -2.80836        0.61795
Br        -4.07151        0.14068        1.90845
N         -1.02138       -2.07390       -1.97176
H         -1.77399       -1.37709       -2.01322
O          0.76724       -2.05606       -3.42853
C          0.05437       -2.99383       -4.28755
H         -0.79787       -2.49312       -4.74889
H          0.78303       -3.27618       -5.04274
H         -0.26005       -3.86068       -3.70450
