50

C         -3.02010       -4.60150       -3.85620
C         -3.84410       -5.07020       -1.75230
C         -2.83780       -5.94820       -4.14650
C         -3.70180       -6.43960       -1.94110
C         -3.19410       -6.87430       -3.16580
H         -2.43290       -6.26180       -5.10190
H         -3.97700       -7.13850       -1.15950
H         -3.07070       -7.93540       -3.35320
C         -2.69300       -3.44860       -4.71640
N         -2.85300       -2.24700       -4.28320
C         -2.03820       -2.30710       -6.51040
C         -2.45830       -1.34430       -5.37260
H         -0.99050       -2.22680       -6.80080
N         -3.52180       -4.18970       -2.69490
H         -2.67070       -2.24700       -7.39590
C         -4.32690       -4.38610       -0.53660
N         -4.36550       -3.10040       -0.47140
C         -5.11490       -4.13740        1.52970
C         -4.87720       -2.76010        0.86560
H         -6.15750       -4.34130        1.77280
O         -4.71800       -5.09120        0.49920
O         -2.22840       -3.63240       -5.93310
H         -4.48520       -4.32340        2.39930
N         -5.56090       -1.37990       -2.76110
C         -6.60550       -0.96180       -3.01890
C         -7.92040       -0.42910       -3.34090
H         -8.61620       -1.24940       -3.53560
H         -8.29010        0.16700       -2.50220
H         -7.85410        0.20380       -4.22990
C         -2.54390        0.45830       -1.05960
C         -0.60270       -1.75930       -1.63980
O         -1.63370       -2.38470       -1.49490
O         -0.39680       -0.51210       -1.18760
C          0.20830       -2.79040       -2.36880
H         -0.41730       -3.49140       -2.91860
H          0.91420       -2.29030       -3.02960
O         -2.86820       -0.01560       -2.13630
Fe        -3.65760       -2.10090       -2.24970
H         -5.79330       -2.17120        0.77430
H         -4.13630       -2.16200        1.40000
H         -3.30330       -0.71060       -5.65250
H         -1.64610       -0.69290       -5.03910
Br         1.22560       -3.80330       -1.05820
N         -1.40100        0.03960       -0.39060
H         -0.92530        0.68340        0.23120
O         -3.32760        1.29910       -0.42220
C         -2.93430        1.94730        0.80210
H         -2.07670        2.60350        0.62840
H         -3.79130        2.55160        1.09020
H         -2.72370        1.20770        1.58000
